; benchmark generated from python API
(set-info :status unknown)
(declare-fun x_months () Int)
(declare-fun x_beta () Int)
(assert
 (<= (- 1202) x_months))
(assert
 (>= 1209 x_months))
(assert
 (>= x_beta 0))
(assert
 (let ((?x2172 (+ x_months 24003)))
 (let ((?x1823 (- ?x2172 (* (div (- ?x2172 1) 12) 12))))
 (let ((?x2895 (ite (or (= ?x1823 4) (= ?x1823 6) (= ?x1823 9) (= ?x1823 11)) 30 31)))
 (let (($x1385 (and (= (mod (div (- ?x2172 1) 12) 4) 0) (and (distinct (mod (div (- ?x2172 1) 12) 100) 0) true))))
 (let ((?x2573 (ite (or $x1385 (= (mod (div (- ?x2172 1) 12) 400) 0)) 29 28)))
 (< x_beta (ite (= ?x1823 2) ?x2573 ?x2895))))))))
(assert
 (and (= x_months (- (+ (* 2020 12) 2) 24003)) (= 28 x_beta)))
(assert
 (let ((?x2032 (+ x_beta 1)))
(let ((?x1903 (+ (+ x_months 12) 24003)))
(let ((?x2322 (- ?x1903 (* (div (- ?x1903 1) 12) 12))))
(let ((?x4443 (ite (or (= ?x2322 4) (= ?x2322 6) (= ?x2322 9) (= ?x2322 11)) 30 31)))
(let (($x3475 (and (= (mod (div (- ?x1903 1) 12) 4) 0) (and (distinct (mod (div (- ?x1903 1) 12) 100) 0) true))))
(let (($x726 (or $x3475 (= (mod (div (- ?x1903 1) 12) 400) 0))))
(let ((?x1257 (ite (= ?x2322 2) (ite $x726 29 28) ?x4443)))
(let ((?x4088 (ite (> 1 ?x2032) 1 (ite (> ?x2032 ?x1257) ?x1257 ?x2032))))
(let ((?x2469 (ite (> 1 ?x4088) 1 (ite (> ?x4088 ?x1257) ?x1257 ?x4088))))
(let ((?x1746 (ite (= 2 ?x2322) (ite $x726 31 31) (ite (= 1 ?x2322) (ite $x726 0 0) 0))))
(let ((?x1456 (ite (= 4 ?x2322) (ite $x726 91 90) (ite (= 3 ?x2322) (ite $x726 60 59) ?x1746))))
(let ((?x2402 (ite (= 6 ?x2322) (ite $x726 152 151) (ite (= 5 ?x2322) (ite $x726 121 120) ?x1456))))
(let ((?x1469 (ite (= 8 ?x2322) (ite $x726 213 212) (ite (= 7 ?x2322) (ite $x726 182 181) ?x2402))))
(let ((?x1531 (ite (= 10 ?x2322) (ite $x726 274 273) (ite (= 9 ?x2322) (ite $x726 244 243) ?x1469))))
(let ((?x1935 (ite (= 12 ?x2322) (ite $x726 335 334) (ite (= 11 ?x2322) (ite $x726 305 304) ?x1531))))
(let ((?x825 (+ (* 365 (- (div (- ?x1903 1) 12) 1)) (div (- (div (- ?x1903 1) 12) 1) 4))))
(let ((?x2308 (+ (- ?x825 (div (- (div (- ?x1903 1) 12) 1) 100)) (div (- (div (- ?x1903 1) 12) 1) 400))))
(let ((?x2871 (+ (+ (- (+ (+ ?x2308 ?x1935) (- ?x2469 1)) 730179) 0) 730179)))
(let ((?x3987 (mod ?x2871 146097)))
(let ((?x2028 (div ?x3987 36524)))
(let ((?x3201 (ite (<= 4 ?x2028) 3 ?x2028)))
(let ((?x2883 (- ?x3987 (* ?x3201 36524))))
(let ((?x3768 (mod ?x2883 1461)))
(let ((?x2108 (div ?x3768 365)))
(let ((?x2606 (ite (<= 4 ?x2108) 3 ?x2108)))
(let ((?x4213 (+ (+ (* (div ?x2871 146097) 400) (* ?x3201 100)) (* (div ?x2883 1461) 4))))
(let ((?x3164 (+ (+ ?x4213 ?x2606) 1)))
(let (($x3746 (or (and (= (mod ?x3164 4) 0) (and (distinct (mod ?x3164 100) 0) true)) (= (mod ?x3164 400) 0))))
(let ((?x3454 (- ?x3768 (* ?x2606 365))))
(let ((?x1486 (ite $x3746 31 31)))
(let (($x3856 (>= ?x3454 ?x1486)))
(let ((?x289 (ite $x3856 (+ (- ?x3454 ?x1486) 1) (+ (- ?x3454 (ite $x3746 0 0)) 1))))
(let ((?x3080 (ite $x3746 60 59)))
(let (($x2002 (>= ?x3454 ?x3080)))
(let ((?x3131 (ite $x3746 91 90)))
(let (($x2054 (>= ?x3454 ?x3131)))
(let ((?x3433 (ite $x2054 (+ (- ?x3454 ?x3131) 1) (ite $x2002 (+ (- ?x3454 ?x3080) 1) ?x289))))
(let ((?x4297 (ite $x3746 121 120)))
(let (($x1164 (>= ?x3454 ?x4297)))
(let ((?x1706 (ite $x3746 152 151)))
(let (($x3857 (>= ?x3454 ?x1706)))
(let ((?x1348 (ite $x3857 (+ (- ?x3454 ?x1706) 1) (ite $x1164 (+ (- ?x3454 ?x4297) 1) ?x3433))))
(let ((?x4291 (ite $x3746 182 181)))
(let (($x690 (>= ?x3454 ?x4291)))
(let ((?x3747 (ite $x3746 213 212)))
(let (($x3766 (>= ?x3454 ?x3747)))
(let ((?x4363 (ite $x3766 (+ (- ?x3454 ?x3747) 1) (ite $x690 (+ (- ?x3454 ?x4291) 1) ?x1348))))
(let ((?x1434 (ite $x3746 244 243)))
(let (($x3558 (>= ?x3454 ?x1434)))
(let ((?x1681 (ite $x3746 274 273)))
(let (($x1121 (>= ?x3454 ?x1681)))
(let ((?x4240 (ite $x1121 (+ (- ?x3454 ?x1681) 1) (ite $x3558 (+ (- ?x3454 ?x1434) 1) ?x4363))))
(let ((?x1413 (ite $x3746 305 304)))
(let (($x2677 (>= ?x3454 ?x1413)))
(let ((?x3696 (ite $x3746 335 334)))
(let (($x3314 (>= ?x3454 ?x3696)))
(let ((?x4238 (ite $x3314 (+ (- ?x3454 ?x3696) 1) (ite $x2677 (+ (- ?x3454 ?x1413) 1) ?x4240))))
(let (($x879 (= 0 0)))
(let ((?x3094 (ite $x1164 5 (ite $x2054 4 (ite $x2002 3 (ite $x3856 2 1))))))
(let ((?x3047 (ite $x3558 9 (ite $x3766 8 (ite $x690 7 (ite $x3857 6 ?x3094))))))
(let ((?x3514 (+ (* (ite $x879 (div (- ?x1903 1) 12) ?x3164) 12) (ite $x879 ?x2322 (ite $x3314 12 (ite $x2677 11 (ite $x1121 10 ?x3047)))))))
(and (= (- ?x3514 24003) (- (+ (* 2021 12) 2) 24003)) (= 27 (- (ite $x879 ?x2469 ?x4238) 1)))))))))))))))))))))))))))))))))))))))))))))))))))))))))))))))))
(check-sat)
